p tw 49 60
1 2
8 15
15 22
22 23
22 29
29 36
36 37
36 43
43 44
2 3
9 10
16 17
16 23
23 24
23 30
37 38
37 44
44 45
3 4
3 10
10 11
17 18
17 24
24 25
31 32
31 38
38 45
45 46
4 5
4 11
11 12
11 18
25 26
25 32
32 33
32 39
39 40
39 46
46 47
5 6
12 19
19 20
19 26
26 27
33 34
33 40
40 41
47 48
6 7
13 14
13 20
20 21
27 28
34 41
7 14
14 21
21 28
28 35
35 42
42 49
